results_rootrelaxation/bin012_050_007.srr.sol
solution status: optimal solution found
objective value:                                    0
_var116_                            0.483060065262055 	(obj:0)
_var285_                            0.403154332675341 	(obj:0)
_var303_                            0.040365789791727 	(obj:0)
_var358_                           0.0174233573701799 	(obj:0)
_var498_                            0.486625307174798 	(obj:0)
_var709_                            0.133525359545582 	(obj:0)
_var715_                           0.0404866454497839 	(obj:0)
_var716_                            0.078596462957741 	(obj:0)
_var724_                            0.114430165572252 	(obj:0)
_var737_                            0.414635620190953 	(obj:0)
_var738_                           0.0526326390847211 	(obj:0)
_var741_                            0.516939934737945 	(obj:0)
_var744_                            0.308544495024776 	(obj:0)
_var748_                            0.281734681545341 	(obj:0)
_var749_                           0.0822019900898358 	(obj:0)
_var751_                            0.173145872779277 	(obj:0)
_var753_                            0.101478467550258 	(obj:0)
_var754_                            0.507754904725455 	(obj:0)
_var755_                            0.147383475003023 	(obj:0)
_var756_                            0.106957257382267 	(obj:0)
_var757_                           0.0241711316118106 	(obj:0)
_var761_                            0.373746122547637 	(obj:0)
_var765_                            0.230874592112155 	(obj:0)
_var767_                            0.184929299440035 	(obj:0)
_var770_                           0.0446360230431449 	(obj:0)
_var771_                             0.34457962373605 	(obj:0)
_var773_                           0.0821818474801599 	(obj:0)
_var775_                             0.28076783628087 	(obj:0)
_var777_                            0.277162309148772 	(obj:0)
_var782_                            0.231640011279862 	(obj:0)
_var783_                            0.257482979494823 	(obj:0)
_var784_                            0.116343713491519 	(obj:0)
_var789_                            0.227530918905851 	(obj:0)
_var792_                            0.208133585787374 	(obj:0)
_var793_                            0.101277041453491 	(obj:0)
_var797_                          0.00803690126092738 	(obj:0)
_var798_                            0.198827700116826 	(obj:0)
_var799_                            0.157535350279983 	(obj:0)
_var800_                            0.307839503686099 	(obj:0)
_var801_                            0.483060065262055 	(obj:0)
_var802_                           0.0249768359988723 	(obj:0)
_var804_                           0.0218547314990143 	(obj:0)
_var805_                            0.198827700116827 	(obj:0)
_var808_                            0.174515570237281 	(obj:0)
_var810_                             0.06872658421625 	(obj:0)
_var811_                           0.0918704427345585 	(obj:0)
_var813_                             0.30038673810579 	(obj:0)
_var815_                           0.0872174998992853 	(obj:0)
_var816_                           0.0901784635217359 	(obj:0)
_var819_                            0.113523748136807 	(obj:0)
_var820_                          0.00461265761592078 	(obj:0)
_var821_                           0.0406477863271966 	(obj:0)
_var822_                            0.080872577851189 	(obj:0)
_var823_                            0.125025178262096 	(obj:0)
_var824_                           0.0726543931031712 	(obj:0)
_var825_                           0.0103734439834021 	(obj:0)
_var828_                            0.141703259074246 	(obj:0)
_var830_                            0.188152116988276 	(obj:0)
_var834_                            0.183700600249769 	(obj:0)
_var838_                           0.0797647343189783 	(obj:0)
_var842_                          0.00014099826773629 	(obj:0)
_var845_                           0.0696128590420172 	(obj:0)
_var846_                            0.198827700116826 	(obj:0)
